mapa = [|
         9,9,9,9,9,9,9,9,9|
         9,0,8,8,8,8,8,0,9|
         9,0,0,9,1,9,0,0,9|
         9,9,0,0,1,0,0,9,9|
         9,9,0,9,4,9,0,9,9|
         9,9,0,0,0,0,0,9,9|
         9,9,9,9,9,9,9,9,9|];
dimx = 7;
dimy = 9;
filav = 6;
colav = 5;
